NAME : n150w120.005.907.tour
COMMENT : Length = 907
COMMENT : Found by LKH [Keld Helsgaun] Tue May  2 05:48:47 2017
TYPE : TOUR
DIMENSION : 151
TOUR_SECTION
1
107
32
65
12
120
118
147
133
104
136
16
62
88
5
19
66
116
8
106
24
30
29
75
11
54
48
101
84
121
35
73
145
63
28
6
150
90
143
74
109
98
135
87
76
77
39
82
27
56
3
13
99
140
112
34
25
102
40
97
113
26
31
61
18
68
81
44
59
91
69
21
46
37
60
138
141
45
125
71
132
20
41
83
117
130
9
131
53
17
92
146
72
126
23
100
22
96
122
103
55
67
64
57
47
15
7
86
134
128
2
42
129
10
149
110
50
14
79
105
51
58
49
137
78
123
111
80
52
93
95
139
94
70
85
124
127
115
43
108
38
119
144
89
36
114
4
148
33
151
142
-1
EOF
